sing20150713.00
TTAA  63001 48698
99005 28834 20502 00062 28631 15004 92751 23444 16015
85487 20056 29507 70134 12057 29517 50587 04760 31017
40759 14362 20502 30972 28561 36005 25099 39957 03024
20248 51944 03038 15427 67538 06544 10663 81339 11054
88999
77999=
TTCC  63007 48698
70865 78736 09039
88901 85948 10548
77617 07560 426//=
TTDD  6300/ 48698
11962 83360 22909 85550 33901 85948 44886 86126 55877
85311 66841 81157 77797 74950 88752 74925 99721 77337
11695 79135 22674 77741 33623 77376 44587 69178 55569
65978
21212 11982 11055 22959 11055 33873 09544 44853 08539
55833 08032 66814 06536 77794 06033 88753 08538 99732
09036 11714 08534 22697 09040 33682 08537 44660 07044
55649 07045 66638 07548 77628 07053 88617 07560 99596
09556 11586 10053 22577 09553 33569 10549=
